sat
(:added-eqs               14
 :arith-branch            129
 :arith-conflicts         10
 :arith-cube-calls        32
 :arith-cube-success      1
 :arith-dio-calls         129
 :arith-fixed-eqs         15
 :arith-gcd-calls         130
 :arith-lower             98
 :arith-make-feasible     169
 :arith-max-columns       212
 :arith-max-rows          84
 :arith-patches           130
 :arith-upper             225
 :conflicts               10
 :decisions               140
 :final-checks            130
 :max-memory              59.31
 :memory                  21.26
 :mk-bool-var             323
 :mk-clause               10
 :num-allocs              5480290200.00
 :num-checks              2
 :propagations            3
 :rlimit-count            18226049
 :sat-backjumps           53966
 :sat-backtracks          130
 :sat-conflicts           54096
 :sat-decisions           186892
 :sat-del-clause          15301
 :sat-elim-bool-vars-res  2817
 :sat-elim-clauses        935
 :sat-elim-literals       525
 :sat-minimized-lits      659949
 :sat-mk-clause-2ary      37334
 :sat-mk-clause-3ary      9943
 :sat-mk-clause-nary      144638
 :sat-mk-var              34436
 :sat-probing-assigned    217
 :sat-propagations-2ary   9495543
 :sat-propagations-nary   8044834
 :sat-restarts            7390
 :sat-scc-elim-binary     2
 :sat-scc-elim-vars       1
 :sat-subs-resolution     72
 :sat-subs-resolution-dyn 16123
 :sat-subsumed            103
 :sat-units               238
 :time                    7.09
 :total-time              7.06)
